<?xml version = "1.0" encoding="UTF-8" standalone="yes"?>
<CPLEXSolution version="1.2">
 <header
   problemName="IloCplex"
   solutionName="p0"
   solutionIndex="-1"
   objectiveValue="4821778178"
   solutionTypeValue="3"
   solutionTypeString="primal"
   solutionStatusValue="127"
   solutionStatusString="integer feasible solution"
   solutionMethodString="mip"
   primalFeasible="0"
   dualFeasible="0"
   writeLevel="3"/>
 <quality
   epInt="1.0000000000000001e-05"
   epRHS="9.9999999999999995e-07"
   maxIntInfeas="0"
   maxPrimalInfeas="0"
   maxX="48566"
   maxSlack="46087"/>
 <variables>
  <variable index="0" value="48566"/>
  <variable index="1" value="48566"/>
  <variable index="4" value="48566"/>
  <variable index="6" value="48566"/>
  <variable index="7" value="48566"/>
  <variable index="8" value="48566"/>
  <variable index="9" value="48566"/>
  <variable index="15" value="48566"/>
  <variable index="16" value="48566"/>
  <variable index="108" value="1"/>
  <variable index="214" value="1"/>
  <variable index="293" value="1"/>
  <variable index="335" value="1"/>
  <variable index="461" value="1"/>
  <variable index="597" value="1"/>
  <variable index="655" value="1"/>
  <variable index="766" value="1"/>
  <variable index="901" value="1"/>
  <variable index="923" value="1"/>
  <variable index="1039" value="1"/>
  <variable index="1183" value="1"/>
  <variable index="1312" value="1"/>
  <variable index="1416" value="1"/>
  <variable index="1454" value="1"/>
  <variable index="1538" value="1"/>
  <variable index="1717" value="1"/>
  <variable index="1819" value="1"/>
  <variable index="1828" value="1"/>
  <variable index="1984" value="1"/>
  <variable index="2027" value="1"/>
  <variable index="2163" value="1"/>
  <variable index="2272" value="1"/>
  <variable index="2375" value="1"/>
  <variable index="2474" value="1"/>
  <variable index="2606" value="1"/>
  <variable index="2681" value="1"/>
  <variable index="2759" value="1"/>
  <variable index="2889" value="1"/>
  <variable index="2991" value="1"/>
  <variable index="3068" value="1"/>
  <variable index="3180" value="1"/>
  <variable index="3278" value="1"/>
  <variable index="3343" value="1"/>
  <variable index="3458" value="1"/>
  <variable index="3607" value="1"/>
  <variable index="3715" value="1"/>
  <variable index="3779" value="1"/>
  <variable index="3905" value="1"/>
  <variable index="3967" value="1"/>
  <variable index="4060" value="1"/>
  <variable index="4152" value="1"/>
  <variable index="4253" value="1"/>
  <variable index="4387" value="1"/>
  <variable index="4511" value="1"/>
  <variable index="4565" value="1"/>
  <variable index="4718" value="1"/>
  <variable index="4746" value="1"/>
  <variable index="4832" value="1"/>
  <variable index="4944" value="1"/>
  <variable index="5048" value="1"/>
  <variable index="5192" value="1"/>
  <variable index="5262" value="1"/>
  <variable index="5371" value="1"/>
  <variable index="5494" value="1"/>
  <variable index="5609" value="1"/>
  <variable index="5622" value="1"/>
  <variable index="5795" value="1"/>
  <variable index="5840" value="1"/>
  <variable index="6013" value="1"/>
  <variable index="6033" value="1"/>
  <variable index="6126" value="1"/>
  <variable index="6299" value="1"/>
  <variable index="6385" value="1"/>
  <variable index="6496" value="1"/>
  <variable index="6586" value="1"/>
  <variable index="6682" value="1"/>
  <variable index="6736" value="1"/>
  <variable index="6834" value="1"/>
  <variable index="6964" value="1"/>
  <variable index="7076" value="1"/>
  <variable index="7130" value="1"/>
  <variable index="7256" value="1"/>
  <variable index="7337" value="1"/>
  <variable index="7431" value="1"/>
  <variable index="7598" value="1"/>
  <variable index="7624" value="1"/>
  <variable index="7742" value="1"/>
  <variable index="7857" value="1"/>
  <variable index="7969" value="1"/>
  <variable index="8100" value="1"/>
  <variable index="8145" value="1"/>
  <variable index="8241" value="1"/>
  <variable index="8373" value="1"/>
  <variable index="8504" value="1"/>
  <variable index="8590" value="1"/>
  <variable index="8647" value="1"/>
  <variable index="8749" value="1"/>
  <variable index="8903" value="1"/>
  <variable index="8970" value="1"/>
  <variable index="9025" value="1"/>
  <variable index="9188" value="1"/>
  <variable index="9302" value="1"/>
  <variable index="9320" value="1"/>
  <variable index="9429" value="1"/>
  <variable index="9550" value="1"/>
  <variable index="9710" value="1"/>
  <variable index="9751" value="1"/>
  <variable index="9821" value="1"/>
  <variable index="9977" value="1"/>
  <variable index="10020" value="1"/>
  <variable index="10021" value="1"/>
  <variable index="10024" value="1"/>
  <variable index="10026" value="1"/>
  <variable index="10027" value="1"/>
  <variable index="10028" value="1"/>
  <variable index="10029" value="1"/>
  <variable index="10035" value="1"/>
  <variable index="10036" value="1"/>
  <variable index="10040" value="48566"/>
 </variables>
</CPLEXSolution>
